instances/ampl_instances/ss_inst_15b_26n.dat
param set_len = 26;
param target_sum = 222346;
param values := [1] 9703 [2] 21303 [3] 6431 [4] 6585 [5] 10170 [6] 6851 [7] 30350 [8] 7937 [9] 28584 [10] 19961 [11] 27650 [12] 26636 [13] 7942 [14] 27379 [15] 5417 [16] 32016 [17] 16441 [18] 20103 [19] 25718 [20] 2084 [21] 12118 [22] 5012 [23] 29069 [24] 23727 [25] 29592 [26] 20422 ;
