Project4/outputs/ilp_integrality_fix/ss_inst_15b_26n.out
_solve_elapsed_time = 46.4253

calculated_sum = 222346

target_sum = 222346

set_len = 26

x [*] :=
 1 1    4 1    7 1   10 1   13 1   16 0   19 1   22 1   25 0
 2 0    5 1    8 1   11 0   14 0   17 1   20 1   23 0   26 1
 3 1    6 1    9 0   12 1   15 0   18 1   21 0   24 0
;

